13761 10239 1188
13365 11635 1341
12729 13271 1344
10175 15825 1580
7684 16316 1406
10494 15506 1642
12398 13602 1482
12721 12279 1489
13951 8049 1020
13858 9142 1182
13889 9111 1051
10419 14581 1715
9970 14030 1752
10426 13574 1740
9354 13646 1764
8685 16315 1513
11175 14825 1579
8749 16251 1591
9268 15732 1672
13421 10579 1328
9055 15945 1650
10827 15173 1624
9618 15382 1706
10177 15823 1639
10930 14070 1685
11477 14523 1580
11000 13000 1695
13736 10264 1221
12437 12563 1538
11783 13217 1619
